c read Graph
c width = 669
c time = 11 ms
c width = 157
c time = 319 ms
c width = 24
c time = 421 ms
c width = 22
c time = 1813 ms
c width = 21
c time = 4647 ms
c width = 20
c time = 6537 ms
c width = 19
c time = 8289 ms
c width = 18
c time = 26662 ms
c width = 17
c time = 215095 ms
c width = 17
c time = 299828 ms
s td 579 18 674
b 1 59 500
b 2 29 482
b 3 95 612
b 4 121 612 613
b 5 36 613 614
b 6 5 587
b 7 190 587 588
b 8 279 588 589
b 9 135 589 590
b 10 218 590 591
b 11 237 591 592
b 12 104 152 608
b 13 110 517
b 14 111 609
b 15 262 609 610
b 16 116 220 610
b 17 116 167
b 18 244 249 481
b 19 87 480 481
b 20 109 479 480
b 21 276 478 479
b 22 306 310
b 23 179 310 311
b 24 75 311 312
b 25 203 312 313
b 26 194 313 314
b 27 30 314 315
b 28 65 315 316
b 29 97 222 674
b 30 189 673 674
b 31 160 672 673
b 32 166 671 672
b 33 215 670 671
b 34 138 669 670
b 35 181 668 669
b 36 148 667 668
b 37 6 666 667
b 38 282 665 666
b 39 23 664 665
b 40 161 663 664
b 41 234 662 663
b 42 99 661 662
b 43 277 660 661
b 44 103 659 660
b 45 83 658 659
b 46 178 657 658
b 47 58 656 657
b 48 242 655 656
b 49 1 390 391
b 50 384 390 391
b 51 2 531 532
b 52 530 531 532
b 53 3 546 547
b 54 542 546 547
b 55 142 471 579 580
b 56 216 395 396 633
b 57 227 413 414 606
b 58 253 396 397 520
b 59 271 379 380 483
b 60 304 483 484 501
b 61 9 56 320 321
b 62 9 56 321 324
b 63 171 324 325 326
b 64 144 326 327 330
b 65 301 330 331 332
b 66 21 332 333 336
b 67 123 336 337 339
b 68 27 339 340 352
b 69 155 352 353 356
b 70 206 356 357 358
b 71 236 358 359 370
b 72 278 370 371 372
b 73 273 372 373 375
b 74 243 375 376 377
b 75 379 380 382 483
b 76 60 383 384 391
b 77 132 392 393 395
b 78 396 397 399 520
b 79 143 399 400 403
b 80 81 403 404 406
b 81 107 406 407 411
b 82 117 411 412 413
b 83 89 414 415 416
b 84 26 420 421 422
b 85 255 422 423 428
b 86 15 428 429 431
b 87 101 431 432 433
b 88 182 433 434 435
b 89 62 435 436 440
b 90 133 440 441 444
b 91 130 445 446 448
b 92 129 448 449 451
b 93 120 452 453 456
b 94 280 456 457 459
b 95 285 459 460 470
b 96 129 520 521 525
b 97 206 525 526 529
b 98 81 529 530 532
b 99 120 532 533 535
b 100 236 535 536 541
b 101 280 541 542 550
b 102 71 551 552 553
b 103 26 554 555 556
b 104 14 556 557 558
b 105 255 559 560 561
b 106 243 561 562 563
b 107 136 565 566 575
b 108 251 577 578 579
b 109 471 579 580 581
b 110 130 583 584 586
b 111 96 206 598 599
b 112 96 206 599 605
b 113 107 633 634 641
b 114 285 642 643 648
b 115 96 101 649 650
b 116 69 132 391 392 586
b 117 132 391 392 395 586
b 118 62 435 440 576 577
b 119 433 435 440 575 576 577
b 120 382 383 433 440 575 577 579
b 121 251 382 383 577 579
b 122 379 382 383 433 440 483 575 579
b 123 379 383 433 440 470 483 565 575 579 581
b 124 470 471 565 575 579 581
b 125 136 470 471 565 575
b 126 182 433 435 575 576
b 127 9 324 498 499 515 516 605 606
b 128 14 324 498 499 515 516 556 558 605 606 648 649
b 129 26 324 420 422 498 499 515 516 554 556 558 605 606 648 649
b 130 89 101 324 414 416 420 422 498 499 515 516 554 556 558 605 606 648 649
b 131 101 324 413 414 416 420 422 498 499 515 516 554 556 558 605 606 648 649
b 132 101 171 324 326 413 416 420 422 498 515 516 554 556 558 605 606 648 649
b 133 101 171 326 413 416 420 422 498 515 554 556 558 605 606 641 642 648 649
b 134 101 144 326 330 413 416 420 422 498 515 554 558 605 606 641 642 648 649
b 135 101 144 330 413 416 420 422 497 498 515 554 558 605 606 641 642 648 649
b 136 101 144 330 413 416 420 422 497 514 515 554 558 605 606 641 642 648 649
b 137 101 301 330 332 413 416 420 422 497 514 554 558 605 606 641 642 648 649
b 138 101 301 332 413 416 420 422 497 514 554 558 563 564 605 641 642 648 649
b 139 101 285 332 413 416 420 422 497 514 554 558 563 564 605 641 642 648 649
b 140 101 285 332 413 416 420 422 459 470 497 514 554 558 563 564 605 641 649
b 141 96 101 332 413 416 420 422 459 470 497 514 554 558 563 564 605 641 649
b 142 96 101 332 413 416 420 422 459 470 497 514 554 558 559 563 564 605 641
b 143 96 101 206 332 413 416 420 422 459 470 497 514 554 559 563 564 605 641
b 144 101 206 255 332 413 416 420 422 428 459 470 497 514 554 559 563 564 641
b 145 101 206 255 332 413 416 420 428 459 470 497 514 554 559 561 563 564 641
b 146 101 206 332 413 416 420 428 431 433 459 470 497 514 554 561 563 564 641
b 147 206 332 413 416 420 428 431 433 459 470 497 514 554 561 563 564 565 641
b 148 21 206 332 336 413 416 420 433 459 470 497 514 554 561 563 564 565 641
b 149 21 206 243 336 413 416 420 433 459 470 497 514 554 561 563 564 565 641
b 150 21 206 243 336 375 377 413 416 420 433 459 470 497 514 554 564 565 641
b 151 21 206 336 372 375 377 413 416 420 433 459 470 497 514 553 554 565 641
b 152 21 71 206 336 372 377 413 416 417 420 433 459 470 497 514 553 565 641
b 153 21 71 206 336 372 377 413 417 420 433 459 470 497 514 551 553 565 641
b 154 21 206 336 370 372 377 413 417 420 433 459 470 497 514 550 551 565 641
b 155 21 206 336 370 377 413 417 420 433 456 459 470 497 514 541 550 565 641
b 156 21 206 336 356 370 377 413 417 420 433 456 470 497 514 535 541 565 641
b 157 21 206 336 356 377 413 417 420 433 452 456 470 497 514 532 535 565 641
b 158 21 206 336 356 377 413 417 420 433 452 470 497 514 525 529 532 565 641
b 159 21 81 336 356 377 413 417 420 433 452 470 497 514 525 529 532 565 641
b 160 21 81 296 336 356 377 413 417 420 433 452 470 496 497 514 525 565 641
b 161 21 81 296 336 356 377 413 417 420 433 452 470 495 496 514 525 565 641
b 162 21 81 296 336 356 377 413 417 420 433 452 470 495 513 514 525 565 641
b 163 21 81 296 336 356 377 413 417 420 433 452 470 495 512 513 525 565 641
b 164 81 296 336 356 377 378 379 413 417 420 433 452 470 495 512 525 565 641
b 165 81 200 336 356 377 378 379 413 417 420 433 452 470 495 512 525 565 641
b 166 81 108 200 336 356 379 413 417 420 433 451 452 470 495 512 525 565 641
b 167 81 108 200 336 356 379 413 417 420 433 451 470 494 495 512 525 565 641
b 168 81 108 200 336 356 379 413 417 420 433 451 470 494 511 512 525 565 641
b 169 81 200 336 356 379 413 417 420 433 451 470 494 510 511 512 525 565 641
b 170 81 200 336 356 379 413 417 420 433 451 470 492 493 494 510 525 565 641
b 171 81 117 336 356 379 413 417 420 433 451 470 492 493 494 510 525 565 641
b 172 81 117 336 356 379 411 413 417 420 433 451 470 492 494 510 525 565 641
b 173 81 117 336 356 379 411 417 420 433 451 470 492 494 509 510 525 565 641
b 174 81 336 356 379 403 406 411 417 420 433 451 470 492 509 510 525 565 641
b 175 107 336 356 379 403 406 411 417 420 433 451 470 492 509 510 525 565 641
b 176 107 336 356 379 403 411 417 420 433 451 470 492 509 510 525 565 633 641
b 177 143 336 356 379 399 403 417 420 433 451 470 492 509 510 525 565 633 641
b 178 143 336 356 379 396 399 417 420 433 451 470 492 509 520 525 565 633 641
b 179 143 336 356 379 395 396 417 420 433 451 470 492 509 520 525 565 633 641
b 180 129 143 336 356 379 395 417 420 433 451 470 492 509 520 525 565 633 641
b 181 129 143 336 356 379 395 417 420 433 448 451 470 492 509 525 565 633 641
b 182 143 275 336 356 379 395 417 420 433 448 470 491 492 509 525 565 633 641
b 183 143 275 336 356 379 395 417 420 433 448 470 491 508 509 525 565 633 641
b 184 143 275 336 356 379 395 417 420 433 444 445 448 470 491 508 565 633 641
b 185 143 336 356 379 395 417 420 433 444 445 448 470 491 508 565 583 586 641
b 186 60 143 336 356 379 383 395 417 420 433 444 470 491 508 565 583 586 641
b 187 60 143 336 356 379 383 417 420 433 440 444 470 491 508 565 582 583 641
b 188 60 143 336 356 379 383 417 420 433 440 470 483 491 508 565 581 582 641
b 189 60 123 143 155 336 356 417 420 433 440 470 483 491 508 565 581 582 641
b 190 15 428 431 564 565
b 191 8 60 123 143 155 417 420 483 491 504 508
b 192 8 60 123 143 155 417 420 483 487 491 504
b 193 8 60 73 223 417 420 483 487 504
b 194 60 73 223 483 487 502 504
b 195 60 73 502 503 504
b 196 60 73 223 483 485 487 502
b 197 223 483 485 501 502
b 198 223 483 484 485 501
b 199 60 73 485 486 487
b 200 8 73 223 417 419 420
b 201 8 223 417 418 419
b 202 8 123 143 155 487 489 491
b 203 8 123 487 488 489
b 204 143 155 489 490 491
b 205 8 123 143 155 504 506 508
b 206 8 123 504 505 506
b 207 143 155 506 507 508
b 208 123 155 336 352 356 581 582
b 209 123 336 339 352 581 582
b 210 27 339 352 581 582
b 211 130 445 448 583 586
b 212 133 440 444 582 583
b 213 60 383 391 395 586
b 214 9 56 324 605 606
b 215 280 456 459 541 550
b 216 120 452 456 532 535
b 217 206 356 358 370 535 541
b 218 236 358 370 535 541
b 219 278 370 372 550 551
b 220 273 372 375 553 554
b 221 35 647 648
b 222 643 647 648
b 223 185 646 647
b 224 643 646 647
b 225 126 645 646
b 226 643 645 646
b 227 25 644 645
b 228 643 644 645
b 229 22 643 644
b 230 153 640 641
b 231 634 640 641
b 232 213 639 640
b 233 634 639 640
b 234 252 638 639
b 235 634 638 639
b 236 45 637 638
b 237 634 637 638
b 238 52 636 637
b 239 634 636 637
b 240 37 635 636
b 241 634 635 636
b 242 128 634 635
b 243 202 604 605
b 244 599 604 605
b 245 241 603 604
b 246 599 603 604
b 247 239 602 603
b 248 599 602 603
b 249 204 601 602
b 250 599 601 602
b 251 53 600 601
b 252 599 600 601
b 253 235 599 600
b 254 254 585 586
b 255 584 585 586
b 256 165 584 585
b 257 230 580 581
b 258 74 578 579
b 259 258 574 575
b 260 566 574 575
b 261 192 573 574
b 262 566 573 574
b 263 40 572 573
b 264 566 572 573
b 265 55 571 572
b 266 566 571 572
b 267 105 570 571
b 268 566 570 571
b 269 137 569 570
b 270 566 569 570
b 271 127 568 569
b 272 566 568 569
b 273 63 567 568
b 274 566 567 568
b 275 131 566 567
b 276 50 562 563
b 277 309 560 561
b 278 94 557 558
b 279 188 555 556
b 280 19 552 553
b 281 80 549 550
b 282 542 549 550
b 283 140 548 549
b 284 542 548 549
b 285 115 547 548
b 286 542 547 548
b 287 229 545 546
b 288 542 545 546
b 289 292 544 545
b 290 542 544 545
b 291 199 543 544
b 292 542 543 544
b 293 44 542 543
b 294 33 540 541
b 295 536 540 541
b 296 49 539 540
b 297 536 539 540
b 298 82 538 539
b 299 536 538 539
b 300 13 537 538
b 301 536 537 538
b 302 214 536 537
b 303 198 534 535
b 304 533 534 535
b 305 7 533 534
b 306 168 530 531
b 307 118 528 529
b 308 526 528 529
b 309 217 527 528
b 310 526 527 528
b 311 57 526 527
b 312 232 524 525
b 313 521 524 525
b 314 41 523 524
b 315 521 523 524
b 316 298 522 523
b 317 521 522 523
b 318 195 521 522
b 319 42 469 470
b 320 460 469 470
b 321 163 468 469
b 322 460 468 469
b 323 150 467 468
b 324 460 467 468
b 325 31 466 467
b 326 460 466 467
b 327 245 465 466
b 328 460 465 466
b 329 270 464 465
b 330 460 464 465
b 331 286 463 464
b 332 460 463 464
b 333 264 462 463
b 334 460 462 463
b 335 226 461 462
b 336 460 461 462
b 337 175 460 461
b 338 272 458 459
b 339 457 458 459
b 340 98 457 458
b 341 266 455 456
b 342 453 455 456
b 343 116 454 455
b 344 453 454 455
b 345 139 453 454
b 346 68 450 451
b 347 449 450 451
b 348 18 449 450
b 349 173 447 448
b 350 446 447 448
b 351 268 446 447
b 352 228 443 444
b 353 441 443 444
b 354 48 442 443
b 355 441 442 443
b 356 91 441 442
b 357 302 439 440
b 358 436 439 440
b 359 106 438 439
b 360 436 438 439
b 361 93 437 438
b 362 436 437 438
b 363 134 436 437
b 364 289 434 435
b 365 281 432 433
b 366 191 430 431
b 367 429 430 431
b 368 92 429 430
b 369 164 427 428
b 370 423 427 428
b 371 78 426 427
b 372 423 426 427
b 373 77 425 426
b 374 423 425 426
b 375 295 424 425
b 376 423 424 425
b 377 263 423 424
b 378 221 421 422
b 379 172 415 416
b 380 24 412 413
b 381 146 410 411
b 382 407 410 411
b 383 257 409 410
b 384 407 409 410
b 385 284 408 409
b 386 407 408 409
b 387 246 407 408
b 388 11 405 406
b 389 404 405 406
b 390 196 404 405
b 391 72 402 403
b 392 400 402 403
b 393 193 401 402
b 394 400 401 402
b 395 147 400 401
b 396 291 398 399
b 397 397 398 399
b 398 125 397 398
b 399 156 394 395
b 400 393 394 395
b 401 162 393 394
b 402 208 389 390
b 403 384 389 390
b 404 290 388 389
b 405 384 388 389
b 406 79 387 388
b 407 384 387 388
b 408 46 386 387
b 409 384 386 387
b 410 219 385 386
b 411 384 385 386
b 412 287 384 385
b 413 297 381 382
b 414 380 381 382
b 415 34 380 381
b 416 113 376 377
b 417 85 374 375
b 418 373 374 375
b 419 154 373 374
b 420 238 371 372
b 421 20 369 370
b 422 359 369 370
b 423 88 368 369
b 424 359 368 369
b 425 145 367 368
b 426 359 367 368
b 427 231 366 367
b 428 359 366 367
b 429 300 365 366
b 430 359 365 366
b 431 201 364 365
b 432 359 364 365
b 433 39 363 364
b 434 359 363 364
b 435 157 362 363
b 436 359 362 363
b 437 260 361 362
b 438 359 361 362
b 439 119 360 361
b 440 359 360 361
b 441 183 359 360
b 442 211 357 358
b 443 177 355 356
b 444 353 355 356
b 445 174 354 355
b 446 353 354 355
b 447 187 353 354
b 448 100 351 352
b 449 340 351 352
b 450 233 350 351
b 451 340 350 351
b 452 274 349 350
b 453 340 349 350
b 454 248 348 349
b 455 340 348 349
b 456 141 347 348
b 457 340 347 348
b 458 265 346 347
b 459 340 346 347
b 460 269 345 346
b 461 340 345 346
b 462 158 344 345
b 463 340 344 345
b 464 184 343 344
b 465 340 343 344
b 466 307 342 343
b 467 340 342 343
b 468 247 341 342
b 469 340 341 342
b 470 4 340 341
b 471 38 338 339
b 472 337 338 339
b 473 32 337 338
b 474 225 335 336
b 475 333 335 336
b 476 283 334 335
b 477 333 334 335
b 478 224 333 334
b 479 205 331 332
b 480 256 329 330
b 481 327 329 330
b 482 197 328 329
b 483 327 328 329
b 484 176 327 328
b 485 305 325 326
b 486 102 323 324
b 487 321 323 324
b 488 67 322 323
b 489 321 322 323
b 490 64 321 322
b 491 304 500 501
b 492 271 482 483
b 493 210 519 520
b 494 253 519 520
b 495 253 518 519
b 496 303 518 519
b 497 253 517 518
b 498 227 606 607
b 499 259 606 607
b 500 227 607 608
b 501 216 632 633
b 502 288 632 633
b 503 43 631 632
b 504 216 631 632
b 505 186 630 631
b 506 216 630 631
b 507 10 629 630
b 508 216 629 630
b 509 66 628 629
b 510 216 628 629
b 511 151 627 628
b 512 216 627 628
b 513 76 626 627
b 514 216 626 627
b 515 216 625 626
b 516 299 625 626
b 517 170 624 625
b 518 216 624 625
b 519 169 623 624
b 520 216 623 624
b 521 212 622 623
b 522 216 622 623
b 523 47 621 622
b 524 216 621 622
b 525 216 620 621
b 526 308 620 621
b 527 207 619 620
b 528 216 619 620
b 529 216 618 619
b 530 240 618 619
b 531 114 617 618
b 532 216 617 618
b 533 70 616 617
b 534 216 616 617
b 535 90 615 616
b 536 216 615 616
b 537 216 614 615
b 538 54 476 477
b 539 142 476 477
b 540 142 477 478
b 541 61 475 476
b 542 142 475 476
b 543 112 474 475
b 544 142 474 475
b 545 142 473 474
b 546 294 473 474
b 547 142 472 473
b 548 209 472 473
b 549 142 471 472
b 550 180 471 472
b 551 84 651 652
b 552 101 651 652
b 553 101 652 653
b 554 159 652 653
b 555 101 653 654
b 556 267 653 654
b 557 101 654 655
b 558 101 650 651
b 559 293 650 651
b 560 28 597 598
b 561 96 597 598
b 562 51 596 597
b 563 96 596 597
b 564 86 595 596
b 565 96 595 596
b 566 96 594 595
b 567 261 594 595
b 568 96 593 594
b 569 122 593 594
b 570 96 592 593
b 571 9 319 320
b 572 250 319 320
b 573 9 318 319
b 574 17 318 319
b 575 9 317 318
b 576 16 317 318
b 577 9 316 317
b 578 149 611
b 579 12 124 611
1 491
1 578
2 492
3 4
4 5
5 537
6 7
7 8
8 9
9 10
10 11
11 570
12 500
13 497
14 15
15 16
16 17
16 343
18 19
19 20
20 21
21 540
22 23
23 24
24 25
25 26
26 27
27 28
28 577
29 30
30 31
31 32
32 33
33 34
34 35
35 36
36 37
37 38
38 39
39 40
40 41
41 42
42 43
43 44
44 45
45 46
46 47
47 48
48 557
49 50
50 403
50 76
51 52
52 306
52 98
53 54
54 288
54 286
55 549
55 109
56 501
56 179
57 498
57 131
58 494
58 78
59 492
59 75
60 491
60 198
61 571
61 62
62 487
62 214
63 485
63 132
64 481
64 134
65 479
65 137
66 475
66 148
67 472
67 209
68 449
68 210
69 444
69 208
70 442
70 217
71 422
71 218
72 420
72 219
73 418
73 220
74 416
74 150
75 414
75 122
76 213
77 400
77 117
78 397
78 178
79 392
79 177
80 389
80 174
81 382
81 175
82 380
82 172
83 379
83 130
84 378
84 129
85 370
85 144
86 367
86 190
87 365
87 146
88 364
88 126
89 358
89 118
90 353
90 212
91 350
91 211
92 347
92 181
93 342
93 216
94 339
94 215
95 320
95 140
96 313
96 180
97 308
97 158
98 159
99 304
99 216
100 295
100 218
101 282
101 215
102 280
102 153
103 279
103 129
104 278
104 128
105 277
105 145
106 276
106 149
107 260
107 125
108 258
108 121
109 257
109 124
110 255
110 211
111 561
111 112
112 244
112 143
113 231
113 176
114 222
114 139
115 558
115 141
116 117
117 213
118 119
119 126
119 120
120 122
120 121
122 123
123 188
123 124
124 125
127 214
127 128
128 129
129 130
130 131
131 132
132 133
133 134
134 135
135 136
136 137
137 138
138 139
139 140
140 141
141 142
142 143
143 144
144 145
145 146
146 147
147 190
147 148
148 149
149 150
150 151
151 220
151 152
152 153
153 154
154 219
154 155
155 215
155 156
156 217
156 157
157 216
157 158
158 159
159 160
160 161
161 162
162 163
163 164
164 165
165 166
166 167
167 168
168 169
169 170
170 171
171 172
172 173
173 174
174 175
175 176
176 177
177 178
178 179
179 180
180 181
181 182
182 183
183 184
184 185
185 211
185 186
186 213
186 187
187 212
187 188
188 189
189 208
189 191
191 205
191 192
192 202
192 193
193 200
193 194
194 195
194 196
196 197
196 199
197 198
200 201
202 204
202 203
205 207
205 206
208 209
209 210
217 218
221 222
222 224
223 224
224 226
225 226
226 228
227 228
228 229
230 231
231 233
232 233
233 235
234 235
235 237
236 237
237 239
238 239
239 241
240 241
241 242
243 244
244 246
245 246
246 248
247 248
248 250
249 250
250 252
251 252
252 253
254 255
255 256
259 260
260 262
261 262
262 264
263 264
264 266
265 266
266 268
267 268
268 270
269 270
270 272
271 272
272 274
273 274
274 275
281 282
282 284
283 284
284 286
285 286
287 288
288 290
289 290
290 292
291 292
292 293
294 295
295 297
296 297
297 299
298 299
299 301
300 301
301 302
303 304
304 305
307 308
308 310
309 310
310 311
312 313
313 315
314 315
315 317
316 317
317 318
319 320
320 322
321 322
322 324
323 324
324 326
325 326
326 328
327 328
328 330
329 330
330 332
331 332
332 334
333 334
334 336
335 336
336 337
338 339
339 340
341 342
342 344
343 344
344 345
346 347
347 348
349 350
350 351
352 353
353 355
354 355
355 356
357 358
358 360
359 360
360 362
361 362
362 363
366 367
367 368
369 370
370 372
371 372
372 374
373 374
374 376
375 376
376 377
381 382
382 384
383 384
384 386
385 386
386 387
388 389
389 390
391 392
392 394
393 394
394 395
396 397
397 398
399 400
400 401
402 403
403 405
404 405
405 407
406 407
407 409
408 409
409 411
410 411
411 412
413 414
414 415
417 418
418 419
421 422
422 424
423 424
424 426
425 426
426 428
427 428
428 430
429 430
430 432
431 432
432 434
433 434
434 436
435 436
436 438
437 438
438 440
439 440
440 441
443 444
444 446
445 446
446 447
448 449
449 451
450 451
451 453
452 453
453 455
454 455
455 457
456 457
457 459
458 459
459 461
460 461
461 463
462 463
463 465
464 465
465 467
466 467
467 469
468 469
469 470
471 472
472 473
474 475
475 477
476 477
477 478
480 481
481 483
482 483
483 484
486 487
487 489
488 489
489 490
493 494
494 495
495 497
495 496
498 500
498 499
501 504
501 502
503 504
504 506
505 506
506 508
507 508
508 510
509 510
510 512
511 512
512 514
513 514
514 515
515 518
515 516
517 518
518 520
519 520
520 522
521 522
522 524
523 524
524 525
525 528
525 526
527 528
528 529
529 532
529 530
531 532
532 534
533 534
534 536
535 536
536 537
538 539
539 542
539 540
541 542
542 544
543 544
544 545
545 547
545 546
547 549
547 548
549 550
551 552
552 558
552 553
553 555
553 554
555 557
555 556
558 559
560 561
561 563
562 563
563 565
564 565
565 566
566 568
566 567
568 570
568 569
571 573
571 572
573 575
573 574
575 577
575 576
578 579
